NAME bilinear
ROWS
 N  OBJ
 E  ∑q=1  
 G  q_0>=0  
 G  q_1>=0  
 G  q_2>=0  
 G  q_3>=0  
 G  q_4>=0  
 G  q_5>=0  
 G  j=1     
 G  j=2     
 G  j=3     
COLUMNS
    a_({1},1)  OBJ       1
    a_({1,2},1)  OBJ       1
    a_({1,2},2)  OBJ       1
    a_({1,3},1)  OBJ       1
    a_({1,3},3)  OBJ       1
    a_({2},2)  OBJ       1
    a_({2,3},2)  OBJ       1
    a_({2,3},3)  OBJ       1
    a_({3},3)  OBJ       1
    q_{1,2,3}  ∑q=1    1
    q_{1,2,3}  q_0>=0    1
    q_{1,3,2}  ∑q=1    1
    q_{1,3,2}  q_1>=0    1
    q_{2,1,3}  ∑q=1    1
    q_{2,1,3}  q_2>=0    1
    q_{2,3,1}  ∑q=1    1
    q_{2,3,1}  q_3>=0    1
    q_{3,1,2}  ∑q=1    1
    q_{3,1,2}  q_4>=0    1
    q_{3,2,1}  ∑q=1    1
    q_{3,2,1}  q_5>=0    1
RHS
    RHS1      ∑q=1    1
    RHS1      j=1       1
    RHS1      j=2       1
    RHS1      j=3       1
BOUNDS
QUADOBJ
    a_({1},1)  q_{1,2,3}  -1
    a_({1},1)  q_{1,3,2}  -1
    a_({1,2},1)  q_{1,2,3}  -1
    a_({1,2},1)  q_{1,3,2}  -1
    a_({1,2},1)  q_{2,1,3}  -1
    a_({1,2},2)  q_{1,2,3}  -1
    a_({1,2},2)  q_{2,1,3}  -1
    a_({1,2},2)  q_{2,3,1}  -1
    a_({1,3},1)  q_{1,2,3}  -1
    a_({1,3},1)  q_{1,3,2}  -1
    a_({1,3},1)  q_{3,1,2}  -1
    a_({1,3},3)  q_{1,3,2}  -1
    a_({1,3},3)  q_{3,1,2}  -1
    a_({1,3},3)  q_{3,2,1}  -1
    a_({2},2)  q_{2,1,3}  -1
    a_({2},2)  q_{2,3,1}  -1
    a_({2,3},2)  q_{2,1,3}  -1
    a_({2,3},2)  q_{2,3,1}  -1
    a_({2,3},2)  q_{3,2,1}  -1
    a_({2,3},3)  q_{2,3,1}  -1
    a_({2,3},3)  q_{3,1,2}  -1
    a_({2,3},3)  q_{3,2,1}  -1
    a_({3},3)  q_{3,1,2}  -1
    a_({3},3)  q_{3,2,1}  -1
QCMATRIX   j=1     
    a_({2},2)  q_{2,1,3}  0.5
    q_{2,1,3}  a_({2},2)  0.5
    a_({2},2)  q_{2,3,1}  0.5
    q_{2,3,1}  a_({2},2)  0.5
    a_({2},2)  q_{3,2,1}  0.5
    q_{3,2,1}  a_({2},2)  0.5
    a_({2,3},2)  q_{2,3,1}  0.5
    q_{2,3,1}  a_({2,3},2)  0.5
    a_({2,3},2)  q_{3,2,1}  0.5
    q_{3,2,1}  a_({2,3},2)  0.5
    a_({2,3},3)  q_{2,3,1}  0.5
    q_{2,3,1}  a_({2,3},3)  0.5
    a_({2,3},3)  q_{3,2,1}  0.5
    q_{3,2,1}  a_({2,3},3)  0.5
    a_({3},3)  q_{2,3,1}  0.5
    q_{2,3,1}  a_({3},3)  0.5
    a_({3},3)  q_{3,1,2}  0.5
    q_{3,1,2}  a_({3},3)  0.5
    a_({3},3)  q_{3,2,1}  0.5
    q_{3,2,1}  a_({3},3)  0.5
QCMATRIX   j=2     
    a_({1},1)  q_{1,2,3}  0.5
    q_{1,2,3}  a_({1},1)  0.5
    a_({1},1)  q_{1,3,2}  0.5
    q_{1,3,2}  a_({1},1)  0.5
    a_({1},1)  q_{3,1,2}  0.5
    q_{3,1,2}  a_({1},1)  0.5
    a_({1,3},1)  q_{1,3,2}  0.5
    q_{1,3,2}  a_({1,3},1)  0.5
    a_({1,3},1)  q_{3,1,2}  0.5
    q_{3,1,2}  a_({1,3},1)  0.5
    a_({1,3},3)  q_{1,3,2}  0.5
    q_{1,3,2}  a_({1,3},3)  0.5
    a_({1,3},3)  q_{3,1,2}  0.5
    q_{3,1,2}  a_({1,3},3)  0.5
    a_({3},3)  q_{1,3,2}  0.5
    q_{1,3,2}  a_({3},3)  0.5
    a_({3},3)  q_{3,1,2}  0.5
    q_{3,1,2}  a_({3},3)  0.5
    a_({3},3)  q_{3,2,1}  0.5
    q_{3,2,1}  a_({3},3)  0.5
QCMATRIX   j=3     
    a_({1},1)  q_{1,2,3}  0.5
    q_{1,2,3}  a_({1},1)  0.5
    a_({1},1)  q_{1,3,2}  0.5
    q_{1,3,2}  a_({1},1)  0.5
    a_({1},1)  q_{2,1,3}  0.5
    q_{2,1,3}  a_({1},1)  0.5
    a_({1,2},1)  q_{1,2,3}  0.5
    q_{1,2,3}  a_({1,2},1)  0.5
    a_({1,2},1)  q_{2,1,3}  0.5
    q_{2,1,3}  a_({1,2},1)  0.5
    a_({1,2},2)  q_{1,2,3}  0.5
    q_{1,2,3}  a_({1,2},2)  0.5
    a_({1,2},2)  q_{2,1,3}  0.5
    q_{2,1,3}  a_({1,2},2)  0.5
    a_({2},2)  q_{1,2,3}  0.5
    q_{1,2,3}  a_({2},2)  0.5
    a_({2},2)  q_{2,1,3}  0.5
    q_{2,1,3}  a_({2},2)  0.5
    a_({2},2)  q_{2,3,1}  0.5
    q_{2,3,1}  a_({2},2)  0.5
ENDATA
